Minimize
 obj: 7 y(3) - 6 y(6) + y(7) - 10 y(8) - 9 y(9) + y(12) - y(14) + 2 y(19)
      - 8 y(21) + 2 y(22) + 9 y(24) - 8 y(28) + 4 y(29) + y(30) + 10 y(33)
      + 10 y(34) + 10 y(38) + 2 y(39) - 83 x(0) + 5 y(11) + 5 y(15) - 5 y(17)
      - 6 y(23) - 7 y(31) - 4 y(37) - 12 x(1) - 10 y(0) + 2 y(1) - 2 y(2)
      + 9 y(4) - 8 y(16) - 6 y(27) - 2 y(32) - y(35) + 112 x(2) - 3 y(5)
      - 6 y(10) - 8 y(13) + 10 y(20) + 9 y(26) - 64 x(3) + 45 x(4) - y(36)
      + 13 x(5) - 6 x(6) - 2 y(18) + 114 x(7) - 138 x(8) + 65 x(9) - 152 x(10)
      - 190 x(11) - 149 x(12) - 127 x(13) + 111 x(14) - 76 x(15) + 89 x(16)
      + 19 x(17) + 65 x(18) + 100 x(19) - 93 x(20) - 17 x(21) + 124 x(22)
      - 124 x(23) + 90 x(24) - 190 x(25) - 80 x(26) - 153 x(27) - 7 x(28)
      - 12 x(29) + 148 x(30) + 38 x(31) + 104 x(32) + 60 x(33) + 102 x(34)
      - 51 x(35) - 200 x(36) - 105 x(37) - 137 x(38) - 138 x(39) 
Subject To
 c1:  - y(3) + 13 y(6) + 5 y(7) + 18 y(8) + 8 y(9) + 14 y(12) + 20 y(14)
      + 9 y(19) + 8 y(21) + 17 y(22) + 20 y(24) + 16 y(28) + 10 y(29) + 7 y(30)
      + y(33) + 11 y(34) + 14 y(38) + 7 y(39) + 9 x(0) <= 99
 c2:  5 y(6) + 11 y(7) + 12 y(12) + 7 y(19) + 20 y(21) + 7 y(22) + y(30)
      + 8 y(38) + 18 y(39) + 13 y(11) + 3 y(15) + 7 y(17) + 5 y(23) + 3 y(25)
      - y(31) + 8 y(37) + 10 x(1) <= 58
 c3:  17 y(3) + 18 y(6) + 10 y(19) + 13 y(28) - y(33) + 19 y(38) + y(39)
      + 16 y(25) + 16 y(37) + 9 y(0) + 18 y(1) + 12 y(2) + 8 y(4) + 4 y(16)
      + y(27) + 10 y(32) + 7 y(35) + 9 x(2) <= 93
 c4:  15 y(3) + 15 y(6) + 11 y(12) + 2 y(14) - y(19) + 12 y(28) + 12 y(29)
      + 2 y(33) + 18 y(38) + 17 y(31) + 18 y(37) + 4 y(0) + 20 y(1) + y(2)
      + 5 y(4) + 15 y(16) + 19 y(35) + 13 y(5) + 19 y(10) + 4 y(13) + 10 y(20)
      + 8 y(26) - x(3) <= 52
 c5:  4 y(9) + 12 y(12) + 18 y(14) + 15 y(19) + 10 y(21) + 2 y(22) + y(24)
      + 19 y(28) + 14 y(29) + 5 y(34) + 16 y(39) + 7 y(11) + 8 y(23) + 4 y(25)
      + 19 y(31) + 10 y(37) + 2 y(16) + 11 y(10) + 10 x(4) <= 61
 c6:  - y(6) + 19 y(8) + 19 y(9) - y(12) - y(22) + 11 y(24) + 9 y(30) + y(34)
      + y(38) - y(17) + 20 y(25) + 16 y(37) + 7 y(0) + 13 y(27) + 16 y(13)
      + 6 y(36) + 9 x(5) <= 64
 c7:  y(7) + 4 y(8) + 20 y(19) + 8 y(29) + 14 y(30) + 12 y(33) + y(34)
      + 11 y(39) + 19 y(17) - y(23) + 4 y(0) + 14 y(1) + 13 y(16) + 8 y(27)
      + 16 y(32) + 5 y(10) + 10 y(13) + 18 y(26) + 14 y(36) + 13 x(6) <= 92
 c8:  3 y(8) + 5 y(21) + 12 y(22) + 10 y(24) + 3 y(34) + 14 y(38) + 16 y(39)
      + 11 y(17) + 4 y(31) + 2 y(27) + 12 y(10) + 11 y(13) + 12 y(18) + 18 x(7)
      <= 89
 c9:  7 y(6) + 7 y(8) + 10 y(9) + 15 y(19) + 18 y(22) + 3 y(34) + 14 y(17)
      + 7 y(23) + 9 y(37) + y(1) + 16 y(4) + 10 y(20) + 2 y(26) + 12 y(36)
      + 9 y(18) + 5 x(8) <= 54
 c10: y(3) + 5 y(6) + 17 y(8) + 16 y(9) + 4 y(14) + 9 y(19) + 8 y(24) + 5 y(33)
      + 19 y(39) + 3 y(11) + 18 y(15) + 8 y(23) + 10 y(1) + 20 y(4) + 18 y(27)
      + 3 y(32) + 5 y(10) + 3 y(13) + 10 y(20) + 14 y(26) + 2 y(18) + 14 x(9)
      <= 52
 c11: 4 y(9) + 9 y(12) + 14 y(14) + 8 y(19) + 13 y(22) + 18 y(28) + y(29)
      + 5 y(39) + 13 y(11) + 9 y(17) - y(23) + 6 y(31) + 20 y(1) + 2 y(16)
      + 4 y(27) + 11 y(32) + 16 y(5) - y(10) + 2 y(13) + 4 y(26) + 14 y(36)
      + 12 x(10) <= 75
 c12: 20 y(8) + 7 y(9) + 4 y(14) + 10 y(21) + 6 y(28) + 7 y(29) + 8 y(33)
      + 5 y(34) + 13 y(39) + 3 y(17) + y(25) - y(37) + 13 y(1) + 14 y(2)
      + 18 y(32) + 6 y(5) + 17 y(20) + 8 y(26) + 13 y(18) + 13 x(11) <= 88
 c13: - y(6) + 18 y(8) + 9 y(14) + 13 y(24) + 19 y(33) + 13 y(34) + 11 y(38)
      + 12 y(15) + y(25) + 10 y(37) + 9 y(0) + 6 y(1) + 17 y(2) + 20 y(16)
      + 19 y(32) + 9 y(35) + 4 y(10) + 8 x(12) <= 81
 c14: 13 y(3) - y(7) + 14 y(8) + 6 y(12) + 18 y(33) + 17 y(38) + 15 y(39)
      + 7 y(15) + 11 y(23) + 6 y(25) + 15 y(37) + 6 y(0) + 12 y(4) + 10 y(16)
      + y(27) + 6 y(5) + 17 y(10) + 11 y(20) + 14 y(26) + 9 y(18) + 8 x(13)
      <= 91
 c15: 12 y(3) + 8 y(6) + 10 y(7) + 12 y(12) + 6 y(14) + 16 y(22) + y(24)
      + 17 y(29) + 13 y(38) + 8 y(39) + y(0) + 18 y(2) + 2 y(4) + 16 y(32)
      + 4 y(35) + 8 y(5) + 15 y(10) + 16 y(13) + 9 y(26) + 14 y(36) + 9 x(14)
      <= 82
 c16: 13 y(3) + 20 y(6) + 16 y(7) + 13 y(12) + 18 y(39) + 5 y(15) + 2 y(17)
      - y(23) + 5 y(31) + 8 y(0) + 3 y(27) + 12 y(35) + 6 y(10) + 7 y(20)
      + 15 x(15) <= 57
 c17: 8 y(3) + 18 y(7) + 4 y(8) + 5 y(14) + y(30) - y(34) + 10 y(38) + 10 y(39)
      + 14 y(11) + 17 y(17) + 9 y(23) + 9 y(0) + 10 y(1) + 2 y(16) + 9 y(27)
      + 7 y(13) + 11 y(20) + 10 y(18) + 11 x(16) <= 87
 c18: 7 y(7) + 20 y(9) - y(12) - y(22) + 12 y(24) + 4 y(33) + 9 y(38)
      + 11 y(39) + 8 y(15) + 9 y(23) + 13 y(31) + 3 y(4) + 9 y(16) + 11 y(27)
      - y(35) + 18 y(20) + 5 y(26) + 4 y(18) + 8 x(17) <= 63
 c19: 4 y(3) + 4 y(7) + 19 y(8) + 3 y(12) - y(21) + 15 y(22) + 10 y(30)
      + 18 y(11) + 6 y(15) + 14 y(23) + 17 y(31) - y(2) + y(16) + 4 y(27)
      + 13 y(32) + 10 y(35) + 5 y(5) + 8 y(26) + 5 y(36) + 2 x(18) <= 63
 c20: 19 y(3) + 9 y(8) + 9 y(12) + 15 y(24) + 12 y(30) + 5 y(34) + 17 y(38)
      + 7 y(15) + 16 y(17) + 2 y(37) + 12 y(4) + 17 y(32) + 4 y(35) + 20 y(13)
      + 12 y(20) + 3 y(36) + 16 y(18) + 4 x(19) <= 66
 c21: 20 y(8) + y(9) - y(12) + 12 y(19) + 15 y(21) + 8 y(22) + 5 y(28)
      + 12 y(30) + 4 y(33) + 5 y(25) + 7 y(4) + 2 y(35) + 12 y(5) + 7 y(13)
      + 10 y(26) + 10 y(18) + 20 x(20) <= 55
 c22: 3 y(3) + 20 y(6) + 6 y(7) + 16 y(8) + 10 y(12) + 12 y(22) + 8 y(24)
      + 17 y(29) + 16 y(33) + 10 y(15) - y(23) + 18 y(25) + 16 y(37) + 9 y(0)
      + 10 y(1) + y(35) + 10 y(13) + 18 y(26) + 2 y(18) + 9 x(21) <= 90
 c23: 15 y(6) + 20 y(14) + 16 y(21) + 4 y(22) + 16 y(24) + 9 y(29) + 18 y(34)
      + 7 y(15) + y(17) + 2 y(4) + 12 y(27) - y(32) + 5 y(5) + 13 y(13)
      + 11 x(22) <= 79
 c24: 2 y(8) + 5 y(12) - y(19) + 8 y(22) + 3 y(28) + 4 y(29) + 3 y(30)
      + 7 y(34) + 17 y(11) + 15 y(15) + 15 y(25) + 20 y(1) + 13 y(2) + 13 y(4)
      + 3 y(27) + 19 y(32) - y(35) + 19 y(10) + 6 x(23) <= 52
 c25: 3 y(3) + 11 y(8) + 13 y(29) + 16 y(38) + 19 y(39) + 18 y(11) + 14 y(23)
      + 7 y(31) + 16 y(0) + 17 y(16) + 11 y(32) + 19 y(35) + 19 y(5) + 16 y(10)
      + 16 y(20) + 2 y(36) + 16 y(18) + 10 x(24) <= 86
 c26: 8 y(8) + 4 y(12) - y(21) + 15 y(22) + 13 y(24) + 11 y(29) + 5 y(33)
      + 18 y(15) + 12 y(17) + 9 y(25) + 20 y(31) + 16 y(37) + 6 y(1) + 15 y(2)
      + y(4) + 5 y(16) + 20 y(35) + 11 y(13) + 15 y(26) + 16 y(18) + 20 x(25)
      <= 71
 c27: 6 y(14) + 8 y(19) + 10 y(21) - y(22) + 10 y(28) + 2 y(29) + 9 y(30)
      + 19 y(33) + 15 y(34) + 16 y(38) + 9 y(39) + 20 y(11) + 10 y(2) + 9 y(4)
      + y(32) + 11 y(35) + 16 y(10) + 17 x(26) <= 57
 c28: y(6) + 15 y(8) + 12 y(9) + 6 y(19) + 5 y(21) + 13 y(22) + 18 y(28)
      + 11 y(29) + 2 y(30) + 18 y(33) + 3 y(38) + 5 y(11) + 16 y(15) + 2 y(23)
      + 6 y(25) + 13 y(1) + 3 y(16) + 8 y(27) + 7 y(32) + 3 y(5) + 5 y(10)
      + 8 y(20) - y(26) + 3 y(36) + 2 x(27) <= 100
 c29: 13 y(3) + 11 y(7) + 9 y(19) + 13 y(22) + 14 y(39) + 6 y(17) - y(23)
      + 9 y(1) + 2 y(16) + 20 y(32) + 14 y(5) + 5 y(36) + 18 y(18) + 12 x(28)
      <= 60
 c30: 13 y(6) + 8 y(7) + 16 y(9) + 13 y(12) + 16 y(14) + 11 y(21) + 13 y(34)
      + 2 y(38) + 6 y(15) + 16 y(17) + 18 y(0) + 6 y(2) + y(16) + 6 y(27)
      + 15 y(32) + 2 y(10) + 2 y(13) + 15 y(26) + 10 y(18) + x(29) <= 57
 c31: 14 y(3) + 10 y(6) + 4 y(7) + 5 y(19) + 11 y(21) + y(22) + 8 y(24)
      + 13 y(28) + y(33) + 5 y(34) + 12 y(17) + 2 y(37) + 18 y(4) + 17 y(27)
      + 12 y(35) + 8 y(13) + 8 y(36) - x(30) <= 61
 c32: 2 y(6) + 6 y(7) + 8 y(9) - y(12) + 5 y(22) + 4 y(29) + 12 y(33) + y(34)
      + 6 y(11) + 10 y(23) + 17 y(2) + 5 y(4) + 12 y(32) + 15 y(10) + 10 y(18)
      + 13 x(31) <= 58
 c33: 13 y(6) + 20 y(12) + 19 y(19) - y(21) + 6 y(22) + 15 y(28) + 14 y(30)
      + 16 y(33) + 6 y(39) + 17 y(17) + 19 y(23) + 2 y(25) + 10 y(1) + 17 y(27)
      + 9 y(32) + 16 y(36) + 16 y(18) + 8 x(32) <= 90
 c34: 9 y(3) + 4 y(9) + 10 y(19) + 5 y(21) + 10 y(28) + 19 y(30) + 2 y(34)
      + 16 y(11) + 20 y(25) + 13 y(31) + 19 y(37) + 6 y(0) + 8 y(1) + 15 y(2)
      + 13 y(4) + 16 y(27) + 14 y(35) + 14 y(5) + 6 y(10) + 11 y(13) + 4 y(26)
      + 16 y(36) + 15 y(18) + 19 x(33) <= 53
 c35: 5 y(3) + 9 y(9) + 11 y(14) + 9 y(28) + 6 y(29) + 5 y(30) - y(33)
      + 3 y(38) + 6 y(39) - y(17) + 13 y(31) + 7 y(2) + 6 y(16) + 15 y(35)
      + 17 y(10) + 19 y(26) + 18 x(34) <= 85
 c36: 20 y(7) + 6 y(14) + 16 y(19) + 15 y(21) + 17 y(28) + 13 y(38) + 14 y(37)
      + 8 y(0) - y(2) + 4 y(4) + 13 y(16) + 2 y(27) + y(32) + 13 y(35)
      + 13 y(5) + y(13) + 11 x(35) <= 50
 c37: 11 y(3) + 5 y(6) + 14 y(8) + 18 y(9) + 7 y(12) + 18 y(14) + 17 y(19)
      + 17 y(21) + 7 y(22) + 6 y(24) + 4 y(28) + 17 y(34) + 16 y(38) + 9 y(15)
      + 4 y(17) - y(25) - y(31) + 11 y(37) + 19 y(0) - y(1) + 14 y(2)
      + 20 y(35) + 9 y(5) + 7 y(10) + 11 y(13) + 17 x(36) <= 92
 c38: 17 y(3) + 20 y(6) + 4 y(7) + 14 y(8) + 7 y(9) + y(12) + 6 y(21)
      + 17 y(29) + 7 y(30) + 6 y(39) + 11 y(15) + 17 y(17) + 8 y(25) + 10 y(37)
      + 19 y(0) + 14 y(4) + 15 y(27) + 6 y(32) + 17 y(5) + x(37) <= 76
 c39: 7 y(3) + 17 y(9) + 14 y(19) + 7 y(21) + y(22) + 11 y(28) + 17 y(30)
      + 12 y(17) + 15 y(23) - y(25) + 19 y(37) + 20 y(0) + 20 y(2) + 20 y(27)
      + 6 y(32) + 4 y(35) + 16 y(13) + 5 x(38) <= 89
 c40: - y(6) + 10 y(12) + 3 y(14) + 20 y(19) + 13 y(30) + 20 y(33) + 13 y(31)
      + 7 y(37) + 20 y(0) + 4 y(4) + 10 y(16) + 15 y(27) + 17 y(35) + 11 y(5)
      + 18 y(10) + 8 y(26) + 8 x(39) <= 96
 c41: 12 y(3) + 12 y(6) + 19 y(19) + 20 y(34) + y(38) + 4 y(39) + y(17)
      + 15 y(25) + 3 y(31) + 6 y(37) + 6 y(1) + 19 y(2) + 16 y(35) + 18 y(5)
      + 9 y(10) + 5 y(13) + 6 y(26) - y(18) <= 78
 c42: 10 y(3) + 17 y(6) + 10 y(7) - y(9) + 9 y(12) + 7 y(14) + 14 y(19) + y(22)
      + 13 y(24) + 5 y(29) + 18 y(34) + 20 y(38) + 12 y(11) + 12 y(25)
      + 17 y(1) + 10 y(16) - y(27) + 14 y(32) + 5 y(10) - y(36) + 11 y(18)
      <= 89
 c43: 13 y(3) + 6 y(9) + 18 y(22) + 9 y(28) + 7 y(33) + 2 y(34) + 4 y(39)
      + 3 y(11) - y(15) + 5 y(31) + 6 y(0) + 13 y(2) + 14 y(16) + 7 y(27)
      + 8 y(35) + 17 y(5) - y(20) <= 58
 c44: 9 y(6) + 12 y(8) + 8 y(12) + 2 y(14) + 4 y(19) + 4 y(33) + 19 y(34)
      + 8 y(39) + 11 y(11) + 4 y(15) + 10 y(25) + 7 y(37) + 13 y(0) + 17 y(1)
      + 4 y(16) + 9 y(27) + 10 y(5) + 18 y(10) + 19 y(13) + 18 y(18) <= 83
 c45: 10 y(6) + 20 y(9) + y(21) + 8 y(22) + 6 y(24) + 7 y(28) + 8 y(30)
      + 10 y(33) + 6 y(34) + y(25) + 11 y(0) + 8 y(16) - y(27) + 19 y(35)
      + 14 y(5) + 20 y(36) <= 53
 c46: 6 y(6) - y(7) + 13 y(8) + 19 y(12) + 16 y(14) + 12 y(22) + 18 y(29)
      + 3 y(33) + 20 y(34) + 6 y(38) + 17 y(11) + 7 y(15) + 4 y(23) + 17 y(31)
      - y(16) + 19 y(35) + 4 y(5) + 8 y(10) + 9 y(13) + 17 y(20) + 7 y(26)
      + y(36) <= 64
 c47: 7 y(3) + 16 y(9) + 10 y(12) + 8 y(14) + 13 y(19) + 12 y(24) + 8 y(29)
      + 12 y(30) + 11 y(33) + 9 y(34) + 17 y(38) + 4 y(39) + 16 y(11) + 2 y(15)
      + 16 y(17) + 10 y(25) + 20 y(31) + 17 y(27) + 5 y(13) + 6 y(26)
      + 12 y(36) + 6 y(18) <= 90
 c48: 14 y(8) + 8 y(14) + 4 y(24) + 12 y(30) + 17 y(34) + 9 y(39) + 8 y(23)
      - y(25) + 2 y(31) + 7 y(1) + 4 y(2) + 14 y(5) + y(10) <= 64
 c49: 3 y(7) + 7 y(14) + 20 y(21) + 4 y(24) + 12 y(29) + 20 y(38) + 20 y(39)
      + 19 y(15) + 10 y(31) + 11 y(2) + 14 y(4) + y(16) + 6 y(27) + 8 y(5)
      + 18 y(10) - y(20) + 15 y(36) <= 77
 c50: 10 y(14) + 7 y(19) + 5 y(21) + 19 y(22) + 16 y(24) + 7 y(29) + 3 y(39)
      + 2 y(11) + 19 y(31) + 12 y(37) + 17 y(1) + 4 y(20) + 10 y(36) + 17 y(18)
      <= 77
 c51: y(3) + 20 y(6) + 6 y(14) + 9 y(19) + 7 y(29) + 14 y(33) + 18 y(34)
      - y(38) + 7 y(23) + 2 y(0) + 17 y(1) + 4 y(4) + 2 y(27) + 3 y(32) + y(35)
      + 9 y(10) + 20 y(13) + 3 y(18) <= 81
 c52: 15 y(7) + 16 y(14) + 12 y(19) + 6 y(21) + 6 y(22) + 8 y(29) + y(30)
      + 5 y(33) + 20 y(34) + 9 y(38) + 18 y(39) + 7 y(15) + 7 y(23) - y(31)
      + 10 y(0) + 12 y(16) + 6 y(27) + 5 y(35) + 4 y(18) <= 57
 c53: 2 y(6) + 11 y(7) + 12 y(8) + 2 y(9) + 10 y(12) + 11 y(28) + 15 y(33)
      + 11 y(38) + 18 y(23) + 9 y(25) + 11 y(0) + 20 y(2) + 3 y(4) + 5 y(10)
      + 5 y(13) + 13 y(20) + 15 y(26) <= 66
 c54: 14 y(9) + 4 y(12) + 5 y(14) + 15 y(19) + 8 y(30) + 16 y(34) + 18 y(38)
      + 20 y(17) + 17 y(25) + y(37) + 5 y(1) + 4 y(16) + 4 y(27) + 12 y(35)
      + 19 y(20) <= 84
 c55: 6 y(7) + 7 y(8) + 12 y(9) + 6 y(21) + y(24) + 20 y(28) + 19 y(29)
      + 10 y(34) + 15 y(39) + 20 y(15) + 20 y(17) + 8 y(23) - y(25) + y(31)
      + 19 y(0) + 12 y(1) + 14 y(4) + 6 y(16) + 8 y(27) + 5 y(32) + 9 y(10)
      - y(13) + 4 y(20) + y(36) + 9 y(18) <= 59
 c56: 10 y(6) + 3 y(8) + 12 y(14) - y(19) - y(21) + 13 y(22) + 3 y(30)
      + 13 y(33) + 8 y(34) + 19 y(38) + 3 y(17) + 2 y(25) + 17 y(31) + 8 y(1)
      + 2 y(4) + 14 y(35) + 15 y(10) <= 52
 c57: 9 y(6) + 18 y(8) + 11 y(19) + 7 y(21) + 14 y(22) + 3 y(24) + 13 y(28)
      + 18 y(29) + 11 y(34) + 4 y(15) + 6 y(23) + y(31) + 4 y(37) + 3 y(0)
      + 4 y(1) + 18 y(5) + y(10) + 7 y(20) + 4 y(26) + 9 y(18) <= 54
 c58: 8 y(9) + 10 y(21) + 9 y(28) + 18 y(29) + y(30) + 7 y(33) + y(39)
      + 18 y(31) + y(0) + 5 y(4) - y(16) + 19 y(5) + 5 y(26) <= 92
 c59: y(3) + y(6) + 20 y(8) + 13 y(9) + 11 y(14) + 15 y(21) + 7 y(29)
      + 12 y(33) + 18 y(34) + 5 y(17) + 6 y(23) + 6 y(25) + 3 y(2) + 12 y(27)
      + 13 y(32) + 4 y(10) + 18 y(13) + 14 y(26) + 6 y(36) - y(18) <= 76
 c60: 12 y(3) + 15 y(6) - y(9) + 17 y(21) + 8 y(22) + 13 y(34) + 13 y(15)
      + 12 y(23) + 5 y(31) + 14 y(0) + 13 y(1) - y(2) + 5 y(4) + 20 y(27)
      + 8 y(5) + 5 y(10) + 20 y(20) + 8 y(26) + 2 y(18) <= 64
 c61: 18 y(3) + 15 y(8) - y(9) + 6 y(14) + 11 y(19) + 16 y(21) + 14 y(29)
      + 8 y(39) + 16 y(11) + 16 y(15) + 20 y(17) - y(23) + 14 y(25) + y(37)
      + 18 y(32) + 3 y(10) + 4 y(36) + 6 y(18) <= 99
 c62: 15 y(3) + 10 y(6) + 6 y(7) + 5 y(8) + 6 y(14) + 5 y(19) + 12 y(21)
      + 14 y(24) + 10 y(28) + 17 y(34) + 8 y(39) + 3 y(15) + 16 y(23)
      + 11 y(25) + 20 y(37) + 9 y(0) + 10 y(27) - y(32) + 10 y(35) + 9 y(5)
      + 19 y(10) + 15 y(26) + 12 y(36) + 17 y(18) <= 87
 c63: 15 y(12) + 11 y(14) + y(19) + 2 y(21) + 19 y(24) + 11 y(28) + 8 y(39)
      + 10 y(15) - y(17) + 13 y(23) + 13 y(37) + 3 y(0) + 16 y(4) + 17 y(16)
      + 8 y(27) + 14 y(26) <= 98
 c64: - y(3) + 16 y(7) + 11 y(24) + 14 y(29) + 7 y(30) + 8 y(39) + 16 y(17)
      + 9 y(23) + 5 y(37) + 12 y(0) + 9 y(1) + 7 y(4) + 17 y(16) + 2 y(27)
      + 11 y(32) + 15 y(5) + 4 y(10) + 5 y(26) - y(36) + 11 y(18) <= 88
 c65: 2 y(3) + 5 y(7) + 11 y(8) + 17 y(14) + 13 y(21) + 3 y(28) + 5 y(30)
      + 7 y(33) + 14 y(34) + 5 y(11) + 12 y(23) + 12 y(25) + 9 y(37) + 20 y(0)
      - y(2) + 20 y(16) + 11 y(13) + 4 y(20) - y(26) + 17 y(36) + 2 y(18) <= 65
 c66: - y(3) + 20 y(8) + 6 y(9) + 16 y(12) + 2 y(19) + 13 y(28) + 15 y(29)
      + 9 y(30) + 17 y(33) + 9 y(34) + 11 y(39) + 18 y(11) + 15 y(17) + 2 y(23)
      + y(25) + 20 y(0) + 19 y(2) + 12 y(16) + 17 y(27) + 5 y(32) + 16 y(35)
      + 6 y(26) + 11 y(36) <= 82
 c67: 20 y(6) + 14 y(7) + 20 y(8) + 20 y(12) + 19 y(14) + 3 y(21) + 14 y(24)
      + 20 y(28) + 5 y(29) + 10 y(33) + 2 y(34) + 12 y(39) + 19 y(11)
      + 15 y(15) + 5 y(23) + 12 y(31) + 15 y(0) + 17 y(1) + 3 y(4) + 2 y(32)
      + 2 y(35) + 12 y(5) + 20 y(20) + 2 y(26) + 3 y(36) <= 89
 c68: 15 y(3) + 3 y(6) + 18 y(7) + 13 y(8) + 14 y(30) + 8 y(33) + 16 y(38)
      + 5 y(39) + 9 y(11) + 12 y(15) + 15 y(25) + 12 y(37) + 12 y(1) + 14 y(32)
      + 2 y(35) + 5 y(5) + 9 y(10) + 15 y(20) + 7 y(36) <= 56
 c69: 6 y(7) + 13 y(9) + 13 y(14) + 16 y(19) + 6 y(22) + 18 y(28) + 7 y(29)
      + 7 y(30) + 19 y(33) + 5 y(34) + 16 y(38) + 12 y(11) + 20 y(15)
      + 20 y(17) + 2 y(23) + 7 y(37) + y(0) + 3 y(4) + 11 y(27) + 17 y(35)
      + 20 y(5) + 7 y(10) + 18 y(20) + 13 y(18) <= 58
 c70: 6 y(3) + 6 y(7) + 2 y(8) - y(22) + 7 y(24) + 15 y(29) + 10 y(30)
      + 8 y(33) + 15 y(38) + 8 y(39) + 17 y(15) + 3 y(25) + 13 y(1) + y(16)
      + 9 y(5) + 15 y(10) - y(20) + 6 y(18) <= 51
 c71: 19 y(3) + 9 y(6) - y(7) + 3 y(8) + 15 y(14) + 4 y(22) + 14 y(24) + y(29)
      + 6 y(33) + 16 y(34) + 8 y(38) + 13 y(15) - y(17) + 15 y(25) + 12 y(1)
      + 20 y(4) + 3 y(16) + 20 y(32) + 16 y(5) + 19 y(10) + 14 y(13) + 7 y(36)
      <= 52
 c72: 17 y(6) + 16 y(7) + 6 y(9) + 6 y(14) + 19 y(19) + 2 y(24) - y(29)
      + 6 y(30) + 5 y(33) + 6 y(15) + 9 y(25) + 8 y(37) + 17 y(0) + 5 y(1)
      + 16 y(18) <= 60
 c73: 6 y(3) + 15 y(6) + 2 y(7) + 10 y(8) - y(14) + 12 y(19) + 18 y(22)
      + 16 y(29) + y(30) + 10 y(33) + 13 y(34) + 10 y(38) + 17 y(23) + 10 y(35)
      + 7 y(5) + 10 y(10) + 4 y(20) + 6 y(18) <= 90
 c74: 19 y(3) + 4 y(8) + 2 y(21) + 19 y(24) + 10 y(29) + 15 y(33) + 20 y(38)
      - y(11) + 19 y(35) + 4 y(5) + 7 y(10) + 20 y(20) + 8 y(36) <= 85
 c75: 4 y(6) + 17 y(7) + 14 y(8) + 6 y(9) + 9 y(12) + 20 y(14) + 20 y(19)
      + 9 y(29) + 20 y(30) + 17 y(33) + 17 y(34) + 11 y(38) + 8 y(39) + 6 y(17)
      + 6 y(23) + 6 y(37) + 19 y(1) + 5 y(16) + 20 y(27) + 4 y(10) + 10 y(13)
      + 11 y(36) + 18 y(18) <= 94
 c76: 14 y(7) + 12 y(8) + 12 y(9) + 3 y(12) + 6 y(21) + 5 y(22) + 14 y(29)
      + 2 y(33) + 9 y(34) + 4 y(39) + 4 y(17) + 14 y(23) + 14 y(25) + 11 y(0)
      + 7 y(2) + 11 y(32) - y(13) + 14 y(18) <= 93
 c77: 19 y(8) + 19 y(9) + 7 y(12) + 15 y(14) + 6 y(21) + 15 y(22) + 15 y(24)
      + 15 y(29) + 6 y(30) - y(34) + 17 y(38) + 5 y(25) + 14 y(37) + 20 y(0)
      + 2 y(4) + 7 y(16) + 10 y(27) + 16 y(35) + 4 y(10) + 10 y(13) + 11 y(26)
      + 12 y(36) <= 99
 c78: 12 y(6) + 10 y(7) + y(8) + 16 y(9) + 9 y(14) + 20 y(22) + 9 y(34)
      + 12 y(38) + 8 y(23) + 14 y(25) + 3 y(37) + 12 y(1) + 14 y(4) + 4 y(16)
      + 15 y(32) + 19 y(35) + 5 y(5) + 20 y(18) <= 57
 c79: 19 y(6) + 5 y(7) + 18 y(9) + 10 y(14) + 15 y(24) + 15 y(30) + 10 y(15)
      + 18 y(25) + 4 y(0) + 7 y(1) + 4 y(27) + 4 y(10) <= 57
 c80: x(0) + x(1) + x(2) + x(3) + x(4) + x(5) + x(6) + x(7) + x(8) + x(9)
      + x(10) + x(11) + x(12) + x(13) + x(14) + x(15) + x(16) + x(17) + x(18)
      + x(19) + x(20) + x(21) + x(22) + x(23) + x(24) + x(25) + x(26) + x(27)
      + x(28) + x(29) + x(30) + x(31) + x(32) + x(33) + x(34) + x(35) + x(36)
      + x(37) + x(38) + x(39) <= 13
 c81: - 9 y(3) + 9 y(6) + 3 y(7) - 5 y(8) - 2 y(9) + y(12) + 2 y(14) + 3 y(19)
      + 2 y(21) + 7 y(22) + 2 y(24) - 5 y(28) - 2 y(29) + 6 y(30) - 6 y(33)
      + 10 y(34) - 10 y(38) + 88 x(0) - 5 y(11) + 2 y(15) + 7 y(23) + 9 y(25)
      + 8 y(31) + 10 y(37) - 161 x(1) - 4 y(1) - 3 y(2) + y(4) - 7 y(27)
      + 7 y(32) - 3 y(35) - 200 x(2) + 8 y(5) - 5 y(10) + 8 y(13) - 4 y(20)
      - 4 y(26) + 140 x(3) - 160 x(4) - 6 y(36) + 38 x(5) + 192 x(6) + 9 y(18)
      + 130 x(7) - 143 x(8) - 17 x(9) + 29 x(10) - 108 x(11) + 167 x(12)
      - 47 x(13) - 31 x(14) - 16 x(15) - 109 x(16) + 90 x(17) + 32 x(18)
      + 11 x(19) - 195 x(20) - 93 x(21) - 151 x(22) + 110 x(23) + 95 x(24)
      + 151 x(25) - 141 x(26) + 96 x(27) + 174 x(28) - 150 x(29) + 86 x(30)
      + 62 x(31) - 183 x(32) + 86 x(33) - 71 x(34) - 143 x(35) - 76 x(36)
      - 80 x(37) + 188 x(38) - 91 x(39) = 0
Bounds
 0 <= x(0) <= 1
 0 <= x(1) <= 1
 0 <= x(2) <= 1
 0 <= x(3) <= 1
 0 <= x(4) <= 1
 0 <= x(5) <= 1
 0 <= x(6) <= 1
 0 <= x(7) <= 1
 0 <= x(8) <= 1
 0 <= x(9) <= 1
 0 <= x(10) <= 1
 0 <= x(11) <= 1
 0 <= x(12) <= 1
 0 <= x(13) <= 1
 0 <= x(14) <= 1
 0 <= x(15) <= 1
 0 <= x(16) <= 1
 0 <= x(17) <= 1
 0 <= x(18) <= 1
 0 <= x(19) <= 1
 0 <= x(20) <= 1
 0 <= x(21) <= 1
 0 <= x(22) <= 1
 0 <= x(23) <= 1
 0 <= x(24) <= 1
 0 <= x(25) <= 1
 0 <= x(26) <= 1
 0 <= x(27) <= 1
 0 <= x(28) <= 1
 0 <= x(29) <= 1
 0 <= x(30) <= 1
 0 <= x(31) <= 1
 0 <= x(32) <= 1
 0 <= x(33) <= 1
 0 <= x(34) <= 1
 0 <= x(35) <= 1
 0 <= x(36) <= 1
 0 <= x(37) <= 1
 0 <= x(38) <= 1
 0 <= x(39) <= 1
Binaries
 x(0)  x(1)  x(2)  x(3)  x(4)  x(5)  x(6)  x(7)  x(8)  x(9)  x(10)  x(11) 
 x(12)  x(13)  x(14)  x(15)  x(16)  x(17)  x(18)  x(19)  x(20)  x(21)  x(22) 
 x(23)  x(24)  x(25)  x(26)  x(27)  x(28)  x(29)  x(30)  x(31)  x(32)  x(33) 
 x(34)  x(35)  x(36)  x(37)  x(38)  x(39) 
End
